(set-info :source |printed by MathSAT|)
(declare-fun call_illinois.ite14 () Int)
(declare-fun call_illinois.ite23 () Int)
(declare-fun call_illinois.ite34 () Int)
(declare-fun call_illinois.ite25 () Int)
(declare-fun call_illinois.flby3 () Int)
(declare-fun call_Sofar.flby () Bool)
(declare-fun call_illinois.flby2 () Int)
(declare-fun call_illinois.ite18 () Int)
(declare-fun dirty () Int)
(declare-fun call_illinois.ite41 () Int)
(declare-fun call_illinois.ite44 () Int)
(declare-fun call_First.First () Int)
(declare-fun param_e6 () Bool)
(declare-fun param_e8 () Bool)
(declare-fun call_illinois.ite20 () Int)
(declare-fun call_illinois.ite9 () Int)
(declare-fun call_illinois.dirty () Int)
(declare-fun call_illinois.ite () Int)
(declare-fun _OK_ () Bool)
(declare-fun call_illinois.ite31 () Int)
(declare-fun call_illinois.ite15 () Int)
(declare-fun call_illinois.ite35 () Int)
(declare-fun call_illinois.ite21 () Int)
(declare-fun param_e3 () Bool)
(declare-fun call_illinois.g6 () Bool)
(declare-fun call_illinois.ite24 () Int)
(declare-fun call_illinois.ite8 () Int)
(declare-fun call_illinois.ite13 () Int)
(declare-fun call_excludes9.excludes () Bool)
(declare-fun param_e9 () Bool)
(declare-fun param_e4 () Bool)
(declare-fun call_Sofar.Sofar () Bool)
(declare-fun call_illinois.ite4 () Int)
(declare-fun call_illinois.ite17 () Int)
(declare-fun call_illinois.shared () Int)
(declare-fun call_illinois.ite47 () Int)
(declare-fun call_illinois.flby4 () Int)
(declare-fun call_illinois.ite16 () Int)
(declare-fun call_illinois.flby () Int)
(declare-fun invalid () Int)
(declare-fun call_illinois.ite19 () Int)
(declare-fun call_illinois.ite39 () Int)
(declare-fun exclusive () Int)
(declare-fun call_illinois.g5 () Bool)
(declare-fun call_illinois.ite12 () Int)
(declare-fun call_illinois.ite7 () Int)
(declare-fun call_illinois.ite2 () Int)
(declare-fun call_illinois.ite27 () Int)
(declare-fun call_illinois.ite6 () Int)
(declare-fun call_illinois.ite46 () Int)
(declare-fun call_illinois.exclusive () Int)
(declare-fun call_illinois.ite45 () Int)
(declare-fun call_illinois.ite33 () Int)
(declare-fun param_e2 () Bool)
(declare-fun call_illinois.ite40 () Int)
(declare-fun call_illinois.ite10 () Int)
(declare-fun call_illinois.ite32 () Int)
(declare-fun call_illinois.ite26 () Int)
(declare-fun shared () Int)
(declare-fun call_illinois.ite3 () Int)
(declare-fun param_e5 () Bool)
(declare-fun call_illinois.ite37 () Int)
(declare-fun call_illinois.ite5 () Int)
(declare-fun param_e1 () Bool)
(declare-fun call_illinois.ite30 () Int)
(declare-fun env () Bool)
(declare-fun param_init_invalid () Int)
(declare-fun call_First.flby () Int)
(declare-fun call_illinois.ite22 () Int)
(declare-fun call_illinois.ite36 () Int)
(declare-fun param_e7 () Bool)
(declare-fun call_illinois.invalid () Int)
(declare-fun call_illinois.ite42 () Int)
(declare-fun call_illinois.ite38 () Int)
(declare-fun call_illinois.ite11 () Int)
(declare-fun call_illinois.ite43 () Int)
(declare-fun call_illinois.ite28 () Int)
(declare-fun call_illinois.ite29 () Int)
(define-fun .def_1299 () Bool (= call_First.flby call_First.First))
(define-fun .def_1297 () Bool (= call_Sofar.flby call_Sofar.Sofar))
(define-fun .def_1100 () Bool (not param_e2))
(define-fun .def_1081 () Bool (not param_e1))
(define-fun .def_1234 () Bool (and .def_1081 .def_1100))
(define-fun .def_1128 () Bool (not param_e3))
(define-fun .def_1235 () Bool (and .def_1128 .def_1234))
(define-fun .def_1154 () Bool (not param_e4))
(define-fun .def_1236 () Bool (and .def_1154 .def_1235))
(define-fun .def_1172 () Bool (not param_e5))
(define-fun .def_1237 () Bool (and .def_1172 .def_1236))
(define-fun .def_1197 () Bool (not param_e6))
(define-fun .def_1238 () Bool (and .def_1197 .def_1237))
(define-fun .def_973 () Bool (not param_e7))
(define-fun .def_1239 () Bool (and .def_973 .def_1238))
(define-fun .def_966 () Bool (not param_e8))
(define-fun .def_1240 () Bool (and .def_966 .def_1239))
(define-fun .def_955 () Bool (not param_e9))
(define-fun .def_1285 () Bool (and .def_955 .def_1240))
(define-fun .def_1277 () Bool (and param_e1 .def_1100))
(define-fun .def_1278 () Bool (and .def_1128 .def_1277))
(define-fun .def_1279 () Bool (and .def_1154 .def_1278))
(define-fun .def_1280 () Bool (and .def_1172 .def_1279))
(define-fun .def_1281 () Bool (and .def_1197 .def_1280))
(define-fun .def_1282 () Bool (and .def_973 .def_1281))
(define-fun .def_1283 () Bool (and .def_966 .def_1282))
(define-fun .def_1284 () Bool (and .def_955 .def_1283))
(define-fun .def_1286 () Bool (or .def_1284 .def_1285))
(define-fun .def_1269 () Bool (and .def_1081 param_e2))
(define-fun .def_1270 () Bool (and .def_1128 .def_1269))
(define-fun .def_1271 () Bool (and .def_1154 .def_1270))
(define-fun .def_1272 () Bool (and .def_1172 .def_1271))
(define-fun .def_1273 () Bool (and .def_1197 .def_1272))
(define-fun .def_1274 () Bool (and .def_973 .def_1273))
(define-fun .def_1275 () Bool (and .def_966 .def_1274))
(define-fun .def_1276 () Bool (and .def_955 .def_1275))
(define-fun .def_1287 () Bool (or .def_1276 .def_1286))
(define-fun .def_1262 () Bool (and param_e3 .def_1234))
(define-fun .def_1263 () Bool (and .def_1154 .def_1262))
(define-fun .def_1264 () Bool (and .def_1172 .def_1263))
(define-fun .def_1265 () Bool (and .def_1197 .def_1264))
(define-fun .def_1266 () Bool (and .def_973 .def_1265))
(define-fun .def_1267 () Bool (and .def_966 .def_1266))
(define-fun .def_1268 () Bool (and .def_955 .def_1267))
(define-fun .def_1288 () Bool (or .def_1268 .def_1287))
(define-fun .def_1256 () Bool (and param_e4 .def_1235))
(define-fun .def_1257 () Bool (and .def_1172 .def_1256))
(define-fun .def_1258 () Bool (and .def_1197 .def_1257))
(define-fun .def_1259 () Bool (and .def_973 .def_1258))
(define-fun .def_1260 () Bool (and .def_966 .def_1259))
(define-fun .def_1261 () Bool (and .def_955 .def_1260))
(define-fun .def_1289 () Bool (or .def_1261 .def_1288))
(define-fun .def_1251 () Bool (and param_e5 .def_1236))
(define-fun .def_1252 () Bool (and .def_1197 .def_1251))
(define-fun .def_1253 () Bool (and .def_973 .def_1252))
(define-fun .def_1254 () Bool (and .def_966 .def_1253))
(define-fun .def_1255 () Bool (and .def_955 .def_1254))
(define-fun .def_1290 () Bool (or .def_1255 .def_1289))
(define-fun .def_1247 () Bool (and param_e6 .def_1237))
(define-fun .def_1248 () Bool (and .def_973 .def_1247))
(define-fun .def_1249 () Bool (and .def_966 .def_1248))
(define-fun .def_1250 () Bool (and .def_955 .def_1249))
(define-fun .def_1291 () Bool (or .def_1250 .def_1290))
(define-fun .def_1244 () Bool (and param_e7 .def_1238))
(define-fun .def_1245 () Bool (and .def_966 .def_1244))
(define-fun .def_1246 () Bool (and .def_955 .def_1245))
(define-fun .def_1292 () Bool (or .def_1246 .def_1291))
(define-fun .def_1242 () Bool (and param_e8 .def_1239))
(define-fun .def_1243 () Bool (and .def_955 .def_1242))
(define-fun .def_1293 () Bool (or .def_1243 .def_1292))
(define-fun .def_1241 () Bool (and param_e9 .def_1240))
(define-fun .def_1294 () Bool (or .def_1241 .def_1293))
(define-fun .def_1295 () Bool (= call_excludes9.excludes .def_1294))
(define-fun .def_1232 () Bool (= call_illinois.flby4 call_illinois.shared))
(define-fun .def_1230 () Bool (= call_illinois.flby3 call_illinois.exclusive))
(define-fun .def_1228 () Bool (= call_illinois.flby2 call_illinois.dirty))
(define-fun .def_1226 () Bool (= call_illinois.flby call_illinois.invalid))
(define-fun .def_1222 () Bool (= call_illinois.ite12 call_illinois.ite7))
(define-fun .def_1223 () Bool (or .def_973 .def_1222))
(define-fun .def_1219 () Bool (= call_illinois.ite11 call_illinois.ite12))
(define-fun .def_1220 () Bool (or param_e7 .def_1219))
(define-fun .def_1224 () Bool (and .def_1220 .def_1223))
(define-fun .def_1215 () Bool (= call_illinois.ite43 call_illinois.ite44))
(define-fun .def_1216 () Bool (or param_e6 .def_1215))
(define-fun .def_1212 () Bool (= call_illinois.ite41 call_illinois.ite44))
(define-fun .def_1213 () Bool (or .def_1197 .def_1212))
(define-fun .def_1209 () Bool (= call_illinois.ite33 call_illinois.ite34))
(define-fun .def_1210 () Bool (or param_e6 .def_1209))
(define-fun .def_1206 () Bool (= call_illinois.ite31 call_illinois.ite34))
(define-fun .def_1207 () Bool (or .def_1197 .def_1206))
(define-fun .def_1203 () Bool (= call_illinois.ite23 call_illinois.ite24))
(define-fun .def_1204 () Bool (or param_e6 .def_1203))
(define-fun .def_1200 () Bool (= call_illinois.ite21 call_illinois.ite24))
(define-fun .def_1201 () Bool (or .def_1197 .def_1200))
(define-fun .def_1196 () Bool (= call_illinois.ite13 call_illinois.ite6))
(define-fun .def_1198 () Bool (or .def_1196 .def_1197))
(define-fun .def_1192 () Bool (= call_illinois.ite13 call_illinois.ite12))
(define-fun .def_1194 () Bool (or .def_1192 param_e6))
(define-fun .def_1199 () Bool (and .def_1194 .def_1198))
(define-fun .def_1202 () Bool (and .def_1199 .def_1201))
(define-fun .def_1205 () Bool (and .def_1202 .def_1204))
(define-fun .def_1208 () Bool (and .def_1205 .def_1207))
(define-fun .def_1211 () Bool (and .def_1208 .def_1210))
(define-fun .def_1214 () Bool (and .def_1211 .def_1213))
(define-fun .def_1217 () Bool (and .def_1214 .def_1216))
(define-fun .def_1187 () Bool (= call_illinois.ite45 call_illinois.ite44))
(define-fun .def_1188 () Bool (or param_e5 .def_1187))
(define-fun .def_1183 () Bool (= call_illinois.ite40 call_illinois.ite45))
(define-fun .def_1184 () Bool (or .def_1172 .def_1183))
(define-fun .def_1180 () Bool (= call_illinois.ite25 call_illinois.ite24))
(define-fun .def_1181 () Bool (or param_e5 .def_1180))
(define-fun .def_1176 () Bool (= call_illinois.ite25 call_illinois.ite20))
(define-fun .def_1177 () Bool (or .def_1172 .def_1176))
(define-fun .def_1171 () Bool (= call_illinois.ite14 call_illinois.ite5))
(define-fun .def_1173 () Bool (or .def_1171 .def_1172))
(define-fun .def_1167 () Bool (= call_illinois.ite14 call_illinois.ite13))
(define-fun .def_1169 () Bool (or .def_1167 param_e5))
(define-fun .def_1174 () Bool (and .def_1169 .def_1173))
(define-fun .def_1178 () Bool (and .def_1174 .def_1177))
(define-fun .def_1182 () Bool (and .def_1178 .def_1181))
(define-fun .def_1185 () Bool (and .def_1182 .def_1184))
(define-fun .def_1189 () Bool (and .def_1185 .def_1188))
(define-fun .def_1162 () Bool (= call_illinois.ite35 call_illinois.ite34))
(define-fun .def_1163 () Bool (or param_e4 .def_1162))
(define-fun .def_1158 () Bool (= call_illinois.ite35 call_illinois.ite30))
(define-fun .def_1159 () Bool (or .def_1154 .def_1158))
(define-fun .def_1153 () Bool (= call_illinois.ite26 call_illinois.ite19))
(define-fun .def_1155 () Bool (or .def_1153 .def_1154))
(define-fun .def_1149 () Bool (= call_illinois.ite26 call_illinois.ite25))
(define-fun .def_1151 () Bool (or .def_1149 param_e4))
(define-fun .def_1156 () Bool (and .def_1151 .def_1155))
(define-fun .def_1160 () Bool (and .def_1156 .def_1159))
(define-fun .def_1164 () Bool (and .def_1160 .def_1163))
(define-fun .def_1144 () Bool (= call_illinois.ite46 call_illinois.ite45))
(define-fun .def_1145 () Bool (or param_e3 .def_1144))
(define-fun .def_1140 () Bool (= call_illinois.ite46 call_illinois.ite39))
(define-fun .def_1141 () Bool (or .def_1128 .def_1140))
(define-fun .def_1136 () Bool (= call_illinois.ite36 call_illinois.ite35))
(define-fun .def_1137 () Bool (or param_e3 .def_1136))
(define-fun .def_1132 () Bool (= call_illinois.ite36 call_illinois.ite29))
(define-fun .def_1133 () Bool (or .def_1128 .def_1132))
(define-fun .def_1127 () Bool (= call_illinois.ite15 call_illinois.ite4))
(define-fun .def_1129 () Bool (or .def_1127 .def_1128))
(define-fun .def_1123 () Bool (= call_illinois.ite15 call_illinois.ite14))
(define-fun .def_1125 () Bool (or .def_1123 param_e3))
(define-fun .def_1130 () Bool (and .def_1125 .def_1129))
(define-fun .def_1134 () Bool (and .def_1130 .def_1133))
(define-fun .def_1138 () Bool (and .def_1134 .def_1137))
(define-fun .def_1142 () Bool (and .def_1138 .def_1141))
(define-fun .def_1146 () Bool (and .def_1142 .def_1145))
(define-fun .def_1118 () Bool (= call_illinois.ite47 call_illinois.ite46))
(define-fun .def_1119 () Bool (or param_e2 .def_1118))
(define-fun .def_1114 () Bool (= call_illinois.ite38 call_illinois.ite47))
(define-fun .def_1115 () Bool (or .def_1100 .def_1114))
(define-fun .def_1109 () Bool (= call_illinois.ite27 call_illinois.ite26))
(define-fun .def_1110 () Bool (or param_e2 .def_1109))
(define-fun .def_1105 () Bool (= call_illinois.ite18 call_illinois.ite27))
(define-fun .def_1106 () Bool (or .def_1100 .def_1105))
(define-fun .def_1099 () Bool (= call_illinois.ite16 call_illinois.ite3))
(define-fun .def_1101 () Bool (or .def_1099 .def_1100))
(define-fun .def_1095 () Bool (= call_illinois.ite16 call_illinois.ite15))
(define-fun .def_1097 () Bool (or .def_1095 param_e2))
(define-fun .def_1102 () Bool (and .def_1097 .def_1101))
(define-fun .def_1107 () Bool (and .def_1102 .def_1106))
(define-fun .def_1111 () Bool (and .def_1107 .def_1110))
(define-fun .def_1116 () Bool (and .def_1111 .def_1115))
(define-fun .def_1120 () Bool (and .def_1116 .def_1119))
(define-fun .def_1090 () Bool (= call_illinois.ite37 call_illinois.ite36))
(define-fun .def_1091 () Bool (or param_e1 .def_1090))
(define-fun .def_1086 () Bool (= call_illinois.ite28 call_illinois.ite37))
(define-fun .def_1087 () Bool (or .def_1081 .def_1086))
(define-fun .def_1080 () Bool (= call_illinois.ite17 call_illinois.ite2))
(define-fun .def_1082 () Bool (or .def_1080 .def_1081))
(define-fun .def_1076 () Bool (= call_illinois.ite17 call_illinois.ite16))
(define-fun .def_1078 () Bool (or .def_1076 param_e1))
(define-fun .def_1083 () Bool (and .def_1078 .def_1082))
(define-fun .def_1088 () Bool (and .def_1083 .def_1087))
(define-fun .def_1092 () Bool (and .def_1088 .def_1091))
(define-fun .def_1070 () Bool (= call_illinois.ite param_init_invalid))
(define-fun .def_1010 () Bool (<= param_init_invalid 0))
(define-fun .def_1071 () Bool (or .def_1010 .def_1070))
(define-fun .def_1067 () Int (+ call_illinois.ite param_init_invalid))
(define-fun .def_1068 () Bool (= .def_1067 1))
(define-fun .def_1011 () Bool (not .def_1010))
(define-fun .def_1069 () Bool (or .def_1011 .def_1068))
(define-fun .def_1072 () Bool (and .def_1069 .def_1071))
(define-fun .def_1065 () Bool (= env call_Sofar.Sofar))
(define-fun .def_1062 () Bool (= shared call_illinois.shared))
(define-fun .def_1059 () Bool (= exclusive call_illinois.exclusive))
(define-fun .def_1056 () Bool (= dirty call_illinois.dirty))
(define-fun .def_1053 () Bool (= invalid call_illinois.invalid))
(define-fun .def_1048 () Bool (= call_illinois.ite11 call_illinois.ite8))
(define-fun .def_1049 () Bool (or .def_966 .def_1048))
(define-fun .def_1045 () Bool (= call_illinois.ite10 call_illinois.ite11))
(define-fun .def_1046 () Bool (or param_e8 .def_1045))
(define-fun .def_1050 () Bool (and .def_1046 .def_1049))
(define-fun .def_1035 () Int (* (- 1) call_First.First))
(define-fun .def_1036 () Int (+ shared .def_1035))
(define-fun .def_1037 () Int (+ exclusive .def_1036))
(define-fun .def_1038 () Int (* (- 1) dirty))
(define-fun .def_1039 () Int (+ .def_1038 .def_1037))
(define-fun .def_1040 () Int (+ invalid .def_1039))
(define-fun .def_1041 () Bool (= .def_1040 1))
(define-fun .def_1022 () Bool (not env))
(define-fun .def_1042 () Bool (or .def_1022 .def_1041))
(define-fun .def_1043 () Bool (= _OK_ .def_1042))
(define-fun .def_1051 () Bool (and .def_1043 .def_1050))
(define-fun .def_1054 () Bool (and .def_1051 .def_1053))
(define-fun .def_1057 () Bool (and .def_1054 .def_1056))
(define-fun .def_1060 () Bool (and .def_1057 .def_1059))
(define-fun .def_1063 () Bool (and .def_1060 .def_1062))
(define-fun .def_1066 () Bool (and .def_1063 .def_1065))
(define-fun .def_1073 () Bool (and .def_1066 .def_1072))
(define-fun .def_1093 () Bool (and .def_1073 .def_1092))
(define-fun .def_1121 () Bool (and .def_1093 .def_1120))
(define-fun .def_1147 () Bool (and .def_1121 .def_1146))
(define-fun .def_1165 () Bool (and .def_1147 .def_1164))
(define-fun .def_1190 () Bool (and .def_1165 .def_1189))
(define-fun .def_1218 () Bool (and .def_1190 .def_1217))
(define-fun .def_1225 () Bool (and .def_1218 .def_1224))
(define-fun .def_1227 () Bool (and .def_1225 .def_1226))
(define-fun .def_1229 () Bool (and .def_1227 .def_1228))
(define-fun .def_1231 () Bool (and .def_1229 .def_1230))
(define-fun .def_1233 () Bool (and .def_1231 .def_1232))
(define-fun .def_1296 () Bool (and .def_1233 .def_1295))
(define-fun .def_1298 () Bool (and .def_1296 .def_1297))
(define-fun .def_1300 () Bool (and .def_1298 .def_1299))
(define-fun .def_1018 () Bool (= param_init_invalid call_First.flby))
(define-fun .def_1013 () Bool (and .def_1011 call_excludes9.excludes))
(define-fun .def_1015 () Bool (= .def_1013 call_Sofar.flby))
(define-fun .def_1007 () Bool (= call_illinois.flby4 0))
(define-fun .def_1004 () Bool (= call_illinois.flby3 0))
(define-fun .def_1001 () Bool (= call_illinois.flby2 0))
(define-fun .def_998 () Bool (= call_illinois.ite call_illinois.flby))
(define-fun .def_992 () Bool (= call_illinois.ite41 0))
(define-fun .def_985 () Bool (not call_illinois.g6))
(define-fun .def_993 () Bool (or .def_985 .def_992))
(define-fun .def_988 () Bool (= call_illinois.ite21 1))
(define-fun .def_989 () Bool (or .def_985 .def_988))
(define-fun .def_983 () Bool (= call_illinois.ite31 0))
(define-fun .def_986 () Bool (or .def_983 .def_985))
(define-fun .def_990 () Bool (and .def_986 .def_989))
(define-fun .def_994 () Bool (and .def_990 .def_993))
(define-fun .def_979 () Bool (= call_illinois.ite40 0))
(define-fun .def_977 () Bool (not call_illinois.g5))
(define-fun .def_980 () Bool (or .def_977 .def_979))
(define-fun .def_971 () Bool (= call_illinois.ite22 call_illinois.ite23))
(define-fun .def_974 () Bool (or .def_971 .def_973))
(define-fun .def_964 () Bool (= call_illinois.ite42 call_illinois.ite43))
(define-fun .def_967 () Bool (or .def_964 .def_966))
(define-fun .def_959 () Bool (= call_illinois.ite9 call_illinois.ite10))
(define-fun .def_960 () Bool (or .def_955 .def_959))
(define-fun .def_953 () Bool (= call_illinois.ite32 call_illinois.ite33))
(define-fun .def_956 () Bool (or .def_953 .def_955))
(define-fun .def_961 () Bool (and .def_956 .def_960))
(define-fun .def_968 () Bool (and .def_961 .def_967))
(define-fun .def_975 () Bool (and .def_968 .def_974))
(define-fun .def_981 () Bool (and .def_975 .def_980))
(define-fun .def_995 () Bool (and .def_981 .def_994))
(define-fun .def_999 () Bool (and .def_995 .def_998))
(define-fun .def_1002 () Bool (and .def_999 .def_1001))
(define-fun .def_1005 () Bool (and .def_1002 .def_1004))
(define-fun .def_1008 () Bool (and .def_1005 .def_1007))
(define-fun .def_1016 () Bool (and .def_1008 .def_1015))
(define-fun .def_1019 () Bool (and .def_1016 .def_1018))
(define-fun .def_1301 () Bool (and .def_1019 .def_1300))
(assert .def_1301)
